sat
(:max-memory                   18.53
 :memory                       18.43
 :nlsat-arith-var              3
 :nlsat-atoms                  7
 :nlsat-bool-var               1
 :nlsat-clauses                6
 :nlsat-decisions              1
 :nlsat-irrational-assignments 2
 :nlsat-propagations           5
 :nlsat-stages                 4
 :num-allocs                   58183
 :rlimit-count                 1235
 :solve-eqs-elim-vars          1
 :solve-eqs-steps              1
 :time                         0.00
 :total-time                   0.02)
